p wcnf 101 152 153 
1 -62 56 0 
1 -47 -15 0 
1 73 -2 0 
1 -57 -6 0 
1 -49 52 0 
1 72 5 0 
1 -10 -79 0 
1 28 -55 0 
1 -53 -23 0 
1 -90 -98 0 
1 -75 -54 0 
1 -55 -38 0 
1 86 39 0 
1 -9 80 0 
1 57 -77 0 
1 -100 -12 0 
1 -29 85 0 
1 -86 34 0 
1 -14 -96 0 
1 -1 97 0 
1 46 -66 0 
1 -39 11 0 
1 -71 -90 0 
1 71 47 0 
1 82 -22 0 
1 21 -47 0 
1 -5 65 0 
1 -74 -67 0 
1 -62 35 0 
1 -59 88 0 
1 22 -87 0 
1 -38 -10 0 
1 -98 17 0 
1 16 49 0 
1 21 -70 0 
1 -91 4 0 
1 34 -84 0 
1 -11 68 0 
1 -49 -12 0 
1 -48 84 0 
1 -29 70 0 
1 84 50 0 
1 71 -54 0 
1 -12 46 0 
1 -42 -73 0 
1 -81 -78 0 
1 48 45 0 
1 1 89 0 
1 58 44 0 
1 96 -56 0 
1 85 -70 0 
1 33 101 0 
1 -1 -100 0 
1 -99 -97 0 
1 -85 56 0 
1 -23 -3 0 
1 24 27 0 
1 -68 -54 0 
1 44 6 0 
1 -29 -27 0 
1 17 69 0 
1 32 96 0 
1 95 -39 0 
1 3 -48 0 
1 66 -1 0 
1 -46 -92 0 
1 36 57 0 
1 49 -62 0 
1 101 -56 0 
1 -76 -54 0 
1 -6 -74 0 
1 11 9 0 
1 5 90 0 
1 -8 48 0 
1 -10 72 0 
1 -53 -83 0 
1 42 13 0 
1 93 -85 0 
1 58 -48 0 
1 68 -88 0 
1 -60 -23 0 
1 -74 -76 0 
1 48 -77 0 
1 -55 -66 0 
1 70 10 0 
1 -1 28 0 
1 -34 82 0 
1 62 -37 0 
1 83 -58 0 
1 48 -2 0 
1 -90 44 0 
1 -31 -4 0 
1 35 72 0 
1 -59 -86 0 
1 46 -32 0 
1 81 35 0 
1 -68 32 0 
1 18 -57 0 
1 81 -12 0 
1 -2 -51 0 
1 -27 42 0 
1 -3 -67 0 
1 -74 21 0 
1 -81 10 0 
1 16 -29 0 
1 -62 -7 0 
1 -73 13 0 
1 65 -18 0 
1 -100 -84 0 
1 33 52 0 
1 60 65 0 
1 85 -1 0 
1 26 -82 0 
1 -101 40 0 
1 -8 -19 0 
1 77 -6 0 
1 66 -95 0 
1 50 -63 0 
1 10 -52 0 
1 50 2 0 
1 61 -84 0 
1 92 91 0 
1 2 -88 0 
1 13 -72 0 
1 -35 63 0 
1 -94 75 0 
1 10 4 0 
1 -2 -79 0 
1 -78 86 0 
1 83 48 0 
1 43 2 0 
1 -39 68 0 
1 -85 72 0 
1 4 -31 0 
1 -24 68 0 
1 82 53 0 
1 -98 -23 0 
1 -53 55 0 
1 -81 69 0 
1 -96 -80 0 
1 72 -40 0 
1 75 -26 0 
1 -57 -26 0 
1 -8 -94 0 
1 -39 -27 0 
1 -57 27 0 
1 -60 -25 0 
1 70 -89 0 
1 91 32 0 
1 55 39 0 
1 -101 -91 0 
1 -91 -82 0 
